n = 19;
budget = 200000;
groceries = [|150,150,36,132,2326|224,56,216,102,2999|120,48,162,144,1288|156,150,108,91,2974|114,30,66,120,1142|250,300,30,181,3227|45,185,95,191,2705|60,144,30,174,2714|10,430,10,137,1332|9,306,27,79,3034|60,294,42,171,3996|70,80,60,188,1889|54,24,12,179,1987|70,20,270,107,1207|20,300,80,192,3718|88,264,240,93,2800|150,90,740,79,2250|70,5,370,126,3557|120,152,48,175,884|];
requirements = [|912,1104|4800,4800|1368,1488|];
offset = [|91,220|2400,3120|342,520|];
variety = 5;